% assignment10.dzn — larger instance for the combined model
n = 10;

% cost[w,t]: rows = workers, columns = tasks
cost = [| 1, 9, 9, 9, 9, 9, 9, 9, 9, 9
        | 9, 1, 9, 9, 9, 2, 9, 9, 9, 9
        | 9, 9, 1, 9, 9, 9, 9, 9, 9, 9
        | 9, 9, 9, 1, 9, 9, 9, 9, 9, 9
        | 9, 9, 9, 9, 1, 9, 9, 9, 9, 9
        | 9, 1, 9, 9, 9, 1, 9, 9, 9, 9
        | 9, 9, 9, 9, 9, 9, 1, 9, 9, 9
        | 9, 9, 9, 9, 9, 9, 9, 1, 9, 9
        | 9, 9, 9, 9, 9, 9, 9, 9, 1, 9
        | 9, 9, 9, 9, 9, 9, 9, 9, 9, 1 |];

dur = [10, 8, 9, 7, 6, 4, 3, 2, 1, 1];   % tasks 1..5 heavy, 6..10 light
H   = 5;